c "source: networkx.gnm_random_graph()"
p edge 37 60
e 1 24
e 1 17
e 2 31
e 2 32
e 2 28
e 2 21
e 3 33
e 3 36
e 5 10
e 5 6
e 6 9
e 6 10
e 6 12
e 6 29
e 7 32
e 7 28
e 7 37
e 7 24
e 8 14
e 8 29
e 10 12
e 11 36
e 12 28
e 12 13
e 12 25
e 13 26
e 13 24
e 13 17
e 13 20
e 14 19
e 14 30
e 15 23
e 15 36
e 15 30
e 15 33
e 16 30
e 16 20
e 17 22
e 17 26
e 17 25
e 18 25
e 18 30
e 18 22
e 18 21
e 19 37
e 20 25
e 21 33
e 22 34
e 23 36
e 23 28
e 23 29
e 26 35
e 26 36
e 26 30
e 27 33
e 27 34
e 28 32
e 28 34
e 34 37
e 35 37
